c FILE /home/rafael/Documents/HappySet/MIHS/inputs/happygen/output/graph_scale_free_k7_p0.3_v50_20241127_082500.txt
c SOURCE This is a scale-free graph formed for the happy graph colouring problem.
c DESCRIPTION It was generated using the problem generator of Rhyd Lewis
c
c GRAPH STATS
c Seed                             = 1359126780
c Number of Nodes                  = 50
c Number of colours k              = 7
c Number of pre-assignments        = 15
c Number of links per new node     = 5
c Density                          = 0.191837
c 
c The degrees of nodes 1 to 50, respectively, are as follows 
c [30, 22, 20, 19, 17, 16, 16, 16, 15, 13, 13, 13, 11, 11, 11, 10, 10, 10, 10, 9, 9, 8, 8, 7, 7, 7, 
c  7, 7, 6, 6, 6, 6, 6, 6, 6, 6, 5, 5, 5, 5, 5, 5, 5, 5, 5, 5, 5, 5, 5, 5] 
c  
p edge 50 235 7
e 1 2
e 1 3
e 1 4
e 1 5
e 1 7
e 1 8
e 1 9
e 1 13
e 1 15
e 1 16
e 1 18
e 1 19
e 1 20
e 1 21
e 1 22
e 1 25
e 1 26
e 1 28
e 1 29
e 1 30
e 1 31
e 1 32
e 1 34
e 1 36
e 1 39
e 1 40
e 1 43
e 1 46
e 1 47
e 1 49
e 2 3
e 2 4
e 2 5
e 2 6
e 2 7
e 2 10
e 2 11
e 2 12
e 2 13
e 2 14
e 2 15
e 2 16
e 2 18
e 2 21
e 2 22
e 2 26
e 2 29
e 2 31
e 2 35
e 2 39
e 2 48
e 3 4
e 3 5
e 3 6
e 3 8
e 3 10
e 3 13
e 3 14
e 3 21
e 3 24
e 3 25
e 3 27
e 3 29
e 3 30
e 3 33
e 3 34
e 3 38
e 3 42
e 3 46
e 4 5
e 4 6
e 4 7
e 4 8
e 4 9
e 4 11
e 4 12
e 4 13
e 4 14
e 4 15
e 4 16
e 4 18
e 4 25
e 4 33
e 4 38
e 4 43
e 5 6
e 5 7
e 5 9
e 5 10
e 5 11
e 5 13
e 5 15
e 5 17
e 5 26
e 5 29
e 5 30
e 5 38
e 5 42
e 6 8
e 6 9
e 6 10
e 6 12
e 6 13
e 6 14
e 6 16
e 6 19
e 6 21
e 6 24
e 6 40
e 6 50
e 7 9
e 7 13
e 7 19
e 7 20
e 7 22
e 7 24
e 7 28
e 7 37
e 7 38
e 7 44
e 7 46
e 7 49
e 8 10
e 8 11
e 8 14
e 8 17
e 8 24
e 8 31
e 8 36
e 8 38
e 8 39
e 8 41
e 8 44
e 8 45
e 9 12
e 9 23
e 9 24
e 9 29
e 9 30
e 9 32
e 9 33
e 9 34
e 9 35
e 9 39
e 10 11
e 10 12
e 10 15
e 10 16
e 10 22
e 10 23
e 10 27
e 10 37
e 11 21
e 11 23
e 11 25
e 11 32
e 11 33
e 11 34
e 11 37
e 11 43
e 12 18
e 12 20
e 12 26
e 12 27
e 12 37
e 12 44
e 12 45
e 12 46
e 13 14
e 13 28
e 13 47
e 13 50
e 14 17
e 14 18
e 14 27
e 14 32
e 14 35
e 15 20
e 15 31
e 15 37
e 15 39
e 15 41
e 15 45
e 16 17
e 16 19
e 16 20
e 16 42
e 16 45
e 17 20
e 17 22
e 17 26
e 17 28
e 17 35
e 17 40
e 18 27
e 18 32
e 18 36
e 18 42
e 18 49
e 19 26
e 19 28
e 19 34
e 19 43
e 19 46
e 19 47
e 20 31
e 20 40
e 20 50
e 21 41
e 21 42
e 21 44
e 21 48
e 22 30
e 22 33
e 22 45
e 23 25
e 23 27
e 23 43
e 23 44
e 23 48
e 24 25
e 24 48
e 25 35
e 26 49
e 27 41
e 28 40
e 28 50
e 29 41
e 30 49
e 31 50
e 32 48
e 33 47
e 34 36
e 35 36
e 36 47
n 5 1
n 8 7
n 16 1
n 23 5
n 25 5
n 32 1
n 33 2
n 35 5
n 37 4
n 40 6
n 41 7
n 42 1
n 46 3
n 49 3
n 50 2
